10 6 15 4 14 11 5 9 8 19 12 17 18 2 13 0 1 7 16 3  
10 6 18 15 4 14 8 11 17 12 0 19 16 5 9 2 13 7 3 1  
10 6 18 15 4 14 8 11 17 12 0 19 16 5 9 2 13 7 1 3  
10 6 15 4 14 11 5 9 8 19 0 1 7 18 2 12 17 13 16 3  
10 6 18 11 4 14 8 15 0 12 9 19 5 2 17 1 7 13 16 3  
10 6 15 4 14 11 5 9 8 19 0 12 7 18 13 2 17 1 16 3  
10 6 18 15 4 14 11 8 17 12 9 19 16 5 0 13 2 3 1 7  
10 6 15 4 18 14 7 9 8 12 0 19 11 5 2 17 1 13 16 3  
10 6 18 15 4 14 11 8 17 12 0 19 16 5 9 2 13 7 3 1  
10 6 15 4 14 11 5 9 19 12 0 18 13 2 7 8 17 1 16 3  
10 6 18 15 4 14 11 8 17 12 0 19 16 5 9 2 13 7 3 1  
10 6 15 4 11 14 8 17 12 18 0 19 16 5 9 13 2 1 7 3  
10 6 18 15 4 14 11 8 17 12 0 2 19 16 5 9 13 1 7 3  
10 6 18 15 4 14 8 7 9 12 0 19 11 5 17 1 2 13 16 3  
10 6 4 15 18 14 11 17 8 12 0 19 16 5 9 2 13 1 7 3  
10 6 15 4 18 14 11 8 17 12 9 19 5 13 16 0 1 7 2 3  
10 6 18 15 4 14 11 8 17 12 9 19 16 5 0 13 7 3 1 2  
10 6 18 15 4 14 11 8 17 12 9 19 16 5 0 2 1 7 3 13  
10 6 18 15 4 14 8 11 17 12 0 19 16 5 9 13 2 7 3 1  
10 6 18 15 4 14 8 11 17 12 0 19 16 5 9 2 13 7 3 1  
10 6 15 4 14 11 5 9 19 8 0 18 13 12 17 16 7 1 2 3  
10 6 15 4 14 11 5 9 8 19 0 1 7 18 2 12 17 13 16 3  
10 6 15 4 14 11 5 9 8 19 0 1 7 18 2 12 17 13 16 3  
10 6 15 4 11 14 5 8 7 18 19 0 12 9 2 1 17 13 16 3  
10 6 18 15 4 14 8 11 17 12 0 19 16 5 9 13 2 7 3 1  
10 6 18 15 4 14 8 17 11 12 0 19 16 5 9 13 1 7 2 3  
10 6 15 4 18 14 8 17 12 0 11 19 16 5 9 13 2 7 3 1  
10 6 15 4 14 11 5 9 8 19 12 0 2 7 18 1 17 13 16 3  
10 6 15 4 14 11 5 18 19 0 12 9 2 13 7 17 1 16 3 8  
10 6 15 4 14 11 5 9 8 19 12 17 18 2 1 0 13 7 16 3  
10 6 15 4 14 11 8 17 12 0 18 19 16 5 9 13 1 7 2 3  
10 6 18 15 4 14 8 11 17 12 0 19 16 5 9 13 2 7 3 1  
10 6 15 4 11 18 14 8 17 12 0 19 16 5 9 13 2 1 7 3  
10 6 15 4 11 14 7 8 5 18 19 0 12 9 2 1 17 13 16 3  
10 6 15 4 14 11 5 8 7 9 19 12 0 18 13 2 17 1 16 3  
10 6 15 4 14 11 5 9 8 19 12 0 18 1 17 7 2 13 16 3  
10 6 15 4 11 18 14 8 17 12 0 19 16 5 9 13 2 1 7 3  
10 6 15 4 14 11 5 8 7 9 19 12 0 18 13 16 17 1 2 3  
10 6 15 4 14 11 5 9 19 12 0 18 2 13 16 17 1 7 3 8  
10 6 15 4 14 11 5 9 8 19 12 17 18 1 0 2 13 16 7 3  
10 6 15 4 14 11 8 0 1 17 18 19 16 5 9 13 12 7 2 3  
10 6 15 4 11 14 5 9 19 12 0 18 2 13 7 1 17 16 3 8  
10 6 15 4 14 11 8 17 12 0 18 19 16 5 9 13 7 2 1 3  
10 6 18 11 4 14 8 15 0 12 9 19 5 2 17 1 7 13 16 3  
10 6 18 15 4 14 8 11 17 12 0 19 16 5 9 2 13 7 3 1  
10 6 15 4 14 11 5 9 19 12 0 2 18 13 16 17 1 7 3 8  
10 6 15 4 14 11 5 8 7 18 9 19 12 17 2 13 16 0 1 3  
10 6 15 4 11 14 7 8 5 18 19 0 12 9 2 1 17 13 16 3  
10 6 15 4 11 14 5 18 19 0 12 9 13 2 8 7 1 17 16 3  
10 6 4 15 14 11 5 18 19 0 12 9 2 13 7 1 17 16 3 8  
10 6 18 15 4 14 8 11 17 12 0 19 16 5 9 2 13 7 3 1  
10 6 15 4 11 14 8 17 12 0 18 19 16 5 9 13 2 7 3 1  
10 6 18 15 4 14 8 11 17 12 0 19 16 5 9 13 7 2 1 3  
10 6 15 4 14 11 5 9 8 19 12 17 18 2 13 0 1 7 16 3  
10 6 15 4 18 14 8 17 12 0 19 11 16 5 9 13 2 7 3 1  
10 6 15 4 14 11 8 17 12 0 18 19 16 5 9 13 2 7 3 1  
10 6 15 4 14 11 8 17 12 0 18 19 16 5 9 13 1 7 2 3  
10 6 15 4 11 14 8 0 12 17 18 19 16 5 9 13 1 7 2 3  
10 6 15 4 18 14 8 17 12 9 19 11 16 5 0 13 2 7 3 1  
10 6 15 4 11 14 8 17 12 0 18 19 16 5 9 13 1 7 2 3  
10 6 18 15 4 14 8 11 17 12 0 19 16 5 9 13 2 1 7 3  
10 6 15 18 4 14 11 8 17 12 0 19 16 5 9 13 2 1 7 3  
10 6 15 4 14 18 8 17 12 0 11 19 16 5 9 13 2 7 3 1  
10 6 15 4 14 11 8 17 12 0 18 19 16 5 9 13 2 7 3 1  
10 6 18 15 4 14 11 5 9 8 19 17 12 2 7 13 16 0 1 3  
10 6 15 4 14 11 5 9 8 19 12 17 18 1 0 13 2 7 16 3  
